Route #1: 18 44 35 23 43 31 12
Route #2: 14 17 41
Route #3: 6 1 5 22 32 36
Route #4: 40 7 45 34 9 28 29 21 30 46 13 42
Route #5: 16 47 10 2 33
Route #6: 25 19 38 37 3 39 26
Route #7: 27 15 8 20 11 4 24
cost: 1233.8064853273058
